benchmarks_vrp/CMT2/fixed_c_size/CMT2_5.vrp
NAME: CMT2_5
TYPE: CVRP
COMMENT: 835.26 - Cluster Nr.5
DIMENSION: 13
CAPACITY: 140
EDGE_WEIGHT_TYPE: EUC_2D
NODE_COORD_TYPE: TWOD_COORDS
NODE_COORD_SECTION: 
12 22 22
6 16 19
1 15 14
7 40 40
10 15 5
3 27 24
9 20 30
11 26 13
4 6 25
2 30 20
5 26 29
8 12 17
13 11 28
DEPOT_SECTION: 
7
-1
DEMAND_SECTION: 
6 18
3 6
9 11
1 11
4 26
2 18
11 12
5 27
7 0
8 15
12 18
10 28
13 6
EOF
