benchmarks_vrp/CMT2/fixed_c_size/CMT2_5.tour
NAME: CMT2_5 solution
TYPE: TOUR
TOUR_SECTION:
7 2 12 3 5 -1
7 9 13 4 8 6 1 10 11 -1
-1
EOF